language Essence 1.3

letting class be function(1 --> 1, 2 --> 1, 3 --> 1, 4 --> 1, 5 --> 1, 6 --> 1, 7 --> 1)
letting deck_length be 31
letting deck_width be 61
letting length be function(1 --> 26, 2 --> 15, 3 --> 1, 4 --> 17, 5 --> 5, 6 --> 4, 7 --> 18)
letting n_classes be 1
letting n_containers be 7
letting separation be function()
letting width be function(1 --> 7, 2 --> 8, 3 --> 2, 4 --> 11, 5 --> 2, 6 --> 1, 7 --> 15)
